# Node Net
883   1
510   1
241   1
884   2
873   2
894   2
 25   3
 20   3
541   3
661   4
 26   4
  7   4
  3   5
211   5
721   6
270   6
601   7
301   7
690   8
180   8
  2   9
 29   9
841  10
900  10
871  11
121  11
